;; translated from ./ctigar/nested4.c.vmt
;; original benchmark available at: https://es-static.fbk.eu/people/griggio/ic3ia/index.html
;; author: Alberto Griggio <griggio@fbk.eu>
(set-logic HORN)
(declare-fun state (Bool Bool Bool Bool Int Int Int Int) Bool)
(assert (forall ((|.s.0| Bool) (|.s.1| Bool) (|.s.0.next| Bool) (|.s.1.next| Bool) (|.s.2.next| Bool) (|.s.3.next| Bool) (|main.i.next| Int) (|main.i| Int) (|main.k.next| Int) (|main.k| Int) (|main.l.next| Int) (|main.l| Int) (|main.n.next| Int) (|main.n| Int) (|.s.3| Bool) (|.s.2| Bool)) (=> (let ((.def_17 (not .s.3)))
(let ((.def_14 (not .s.2)))
(let ((.def_10 (not .s.1)))
(let ((.def_12 (and .def_10 .s.0)))
(let ((.def_15 (and .def_12 .def_14)))
(let ((.def_18 (and .def_15 .def_17)))
.def_18)))))) (state |.s.1| |.s.0| |.s.2| |.s.3| |main.n| |main.l| |main.k| |main.i|))))
(assert (forall ((|.s.0| Bool) (|.s.1| Bool) (|.s.0.next| Bool) (|.s.1.next| Bool) (|.s.2.next| Bool) (|.s.3.next| Bool) (|main.i.next| Int) (|main.i| Int) (|main.k.next| Int) (|main.k| Int) (|main.l.next| Int) (|main.l| Int) (|main.n.next| Int) (|main.n| Int) (|.s.3| Bool) (|.s.2| Bool)) (=> (and (state |.s.1| |.s.0| |.s.2| |.s.3| |main.n| |main.l| |main.k| |main.i|) (let ((.def_19 (not .s.0)))
(let ((.def_10 (not .s.1)))
(let ((.def_62 (and .def_10 .def_19)))
(let ((.def_14 (not .s.2)))
(let ((.def_114 (and .def_14 .def_62)))
(let ((.def_17 (not .s.3)))
(let ((.def_216 (and .def_17 .def_114)))
(let ((.def_217 (not .def_216)))
(let ((.def_43 (not .s.0.next)))
(let ((.def_41 (not .s.1.next)))
(let ((.def_44 (and .def_41 .def_43)))
(let ((.def_39 (not .s.2.next)))
(let ((.def_45 (and .def_39 .def_44)))
(let ((.def_37 (not .s.3.next)))
(let ((.def_46 (and .def_37 .def_45)))
(let ((.def_35 (= main.i main.i.next)))
(let ((.def_47 (and .def_35 .def_46)))
(let ((.def_32 (= main.k main.k.next)))
(let ((.def_48 (and .def_32 .def_47)))
(let ((.def_29 (= main.l main.l.next)))
(let ((.def_49 (and .def_29 .def_48)))
(let ((.def_26 (= main.n main.n.next)))
(let ((.def_50 (and .def_26 .def_49)))
(let ((.def_218 (or .def_50 .def_217)))
(let ((.def_83 (and .s.1.next .s.0.next)))
(let ((.def_84 (and .def_39 .def_83)))
(let ((.def_210 (and .def_37 .def_84)))
(let ((.def_211 (and .def_35 .def_210)))
(let ((.def_212 (and .def_32 .def_211)))
(let ((.def_213 (and .def_29 .def_212)))
(let ((.def_214 (and .def_26 .def_213)))
(let ((.def_198 (<= main.l 0)))
(let ((.def_207 (not .def_198)))
(let ((.def_12 (and .def_10 .s.0)))
(let ((.def_15 (and .def_12 .def_14)))
(let ((.def_18 (and .def_15 .def_17)))
(let ((.def_208 (and .def_18 .def_207)))
(let ((.def_209 (not .def_208)))
(let ((.def_215 (or .def_209 .def_214)))
(let ((.def_219 (and .def_215 .def_218)))
(let ((.def_94 (and .s.1.next .def_43)))
(let ((.def_107 (and .def_39 .def_94)))
(let ((.def_201 (and .def_37 .def_107)))
(let ((.def_202 (and .def_35 .def_201)))
(let ((.def_203 (and .def_32 .def_202)))
(let ((.def_204 (and .def_29 .def_203)))
(let ((.def_205 (and .def_26 .def_204)))
(let ((.def_199 (and .def_18 .def_198)))
(let ((.def_200 (not .def_199)))
(let ((.def_206 (or .def_200 .def_205)))
(let ((.def_220 (and .def_206 .def_219)))
(let ((.def_20 (and .s.1 .def_19)))
(let ((.def_91 (and .def_14 .def_20)))
(let ((.def_194 (and .def_17 .def_91)))
(let ((.def_195 (not .def_194)))
(let ((.def_196 (or .def_50 .def_195)))
(let ((.def_221 (and .def_196 .def_220)))
(let ((.def_188 (= main.k.next 1)))
(let ((.def_55 (and .s.2.next .def_44)))
(let ((.def_56 (and .def_37 .def_55)))
(let ((.def_189 (and .def_56 .def_188)))
(let ((.def_190 (and .def_35 .def_189)))
(let ((.def_191 (and .def_29 .def_190)))
(let ((.def_192 (and .def_26 .def_191)))
(let ((.def_79 (and .s.1 .s.0)))
(let ((.def_80 (and .def_14 .def_79)))
(let ((.def_186 (and .def_17 .def_80)))
(let ((.def_187 (not .def_186)))
(let ((.def_193 (or .def_187 .def_192)))
(let ((.def_222 (and .def_193 .def_221)))
(let ((.def_95 (and .s.2.next .def_94)))
(let ((.def_180 (and .s.3.next .def_95)))
(let ((.def_181 (and .def_35 .def_180)))
(let ((.def_182 (and .def_32 .def_181)))
(let ((.def_183 (and .def_29 .def_182)))
(let ((.def_184 (and .def_26 .def_183)))
(let ((.def_168 (<= main.n main.k)))
(let ((.def_63 (and .s.2 .def_62)))
(let ((.def_167 (and .def_17 .def_63)))
(let ((.def_178 (and .def_167 .def_168)))
(let ((.def_179 (not .def_178)))
(let ((.def_185 (or .def_179 .def_184)))
(let ((.def_223 (and .def_185 .def_222)))
(let ((.def_71 (and .def_41 .s.0.next)))
(let ((.def_72 (and .s.2.next .def_71)))
(let ((.def_172 (and .def_37 .def_72)))
(let ((.def_173 (and .def_35 .def_172)))
(let ((.def_174 (and .def_32 .def_173)))
(let ((.def_175 (and .def_29 .def_174)))
(let ((.def_176 (and .def_26 .def_175)))
(let ((.def_169 (not .def_168)))
(let ((.def_170 (and .def_167 .def_169)))
(let ((.def_171 (not .def_170)))
(let ((.def_177 (or .def_171 .def_176)))
(let ((.def_224 (and .def_177 .def_223)))
(let ((.def_161 (= main.l main.i.next)))
(let ((.def_96 (and .def_37 .def_95)))
(let ((.def_162 (and .def_96 .def_161)))
(let ((.def_163 (and .def_32 .def_162)))
(let ((.def_164 (and .def_29 .def_163)))
(let ((.def_165 (and .def_26 .def_164)))
(let ((.def_52 (and .def_12 .s.2)))
(let ((.def_159 (and .def_17 .def_52)))
(let ((.def_160 (not .def_159)))
(let ((.def_166 (or .def_160 .def_165)))
(let ((.def_225 (and .def_166 .def_224)))
(let ((.def_153 (and .s.3.next .def_55)))
(let ((.def_154 (and .def_35 .def_153)))
(let ((.def_155 (and .def_32 .def_154)))
(let ((.def_156 (and .def_29 .def_155)))
(let ((.def_157 (and .def_26 .def_156)))
(let ((.def_140 (<= main.n main.i)))
(let ((.def_21 (and .s.2 .def_20)))
(let ((.def_139 (and .def_17 .def_21)))
(let ((.def_151 (and .def_139 .def_140)))
(let ((.def_152 (not .def_151)))
(let ((.def_158 (or .def_152 .def_157)))
(let ((.def_226 (and .def_158 .def_225)))
(let ((.def_144 (and .s.2.next .def_83)))
(let ((.def_145 (and .def_37 .def_144)))
(let ((.def_146 (and .def_35 .def_145)))
(let ((.def_147 (and .def_32 .def_146)))
(let ((.def_148 (and .def_29 .def_147)))
(let ((.def_149 (and .def_26 .def_148)))
(let ((.def_141 (not .def_140)))
(let ((.def_142 (and .def_139 .def_141)))
(let ((.def_143 (not .def_142)))
(let ((.def_150 (or .def_143 .def_149)))
(let ((.def_227 (and .def_150 .def_226)))
(let ((.def_126 (<= 1 main.i)))
(let ((.def_135 (not .def_126)))
(let ((.def_124 (and .s.2 .def_79)))
(let ((.def_125 (and .def_17 .def_124)))
(let ((.def_136 (and .def_125 .def_135)))
(let ((.def_137 (not .def_136)))
(let ((.def_85 (and .s.3.next .def_84)))
(let ((.def_86 (and .def_35 .def_85)))
(let ((.def_87 (and .def_32 .def_86)))
(let ((.def_88 (and .def_29 .def_87)))
(let ((.def_89 (and .def_26 .def_88)))
(let ((.def_138 (or .def_89 .def_137)))
(let ((.def_228 (and .def_138 .def_227)))
(let ((.def_129 (and .s.3.next .def_45)))
(let ((.def_130 (and .def_35 .def_129)))
(let ((.def_131 (and .def_32 .def_130)))
(let ((.def_132 (and .def_29 .def_131)))
(let ((.def_133 (and .def_26 .def_132)))
(let ((.def_127 (and .def_125 .def_126)))
(let ((.def_128 (not .def_127)))
(let ((.def_134 (or .def_128 .def_133)))
(let ((.def_229 (and .def_134 .def_228)))
(let ((.def_117 (and .def_39 .def_71)))
(let ((.def_118 (and .s.3.next .def_117)))
(let ((.def_119 (and .def_35 .def_118)))
(let ((.def_120 (and .def_32 .def_119)))
(let ((.def_121 (and .def_29 .def_120)))
(let ((.def_122 (and .def_26 .def_121)))
(let ((.def_115 (and .s.3 .def_114)))
(let ((.def_116 (not .def_115)))
(let ((.def_123 (or .def_116 .def_122)))
(let ((.def_230 (and .def_123 .def_229)))
(let ((.def_108 (and .s.3.next .def_107)))
(let ((.def_104 (* (- 1) main.i.next)))
(let ((.def_105 (+ main.i .def_104)))
(let ((.def_106 (= .def_105 (- 1))))
(let ((.def_109 (and .def_106 .def_108)))
(let ((.def_110 (and .def_32 .def_109)))
(let ((.def_111 (and .def_29 .def_110)))
(let ((.def_112 (and .def_26 .def_111)))
(let ((.def_102 (and .def_15 .s.3)))
(let ((.def_103 (not .def_102)))
(let ((.def_113 (or .def_103 .def_112)))
(let ((.def_231 (and .def_113 .def_230)))
(let ((.def_97 (and .def_35 .def_96)))
(let ((.def_98 (and .def_32 .def_97)))
(let ((.def_99 (and .def_29 .def_98)))
(let ((.def_100 (and .def_26 .def_99)))
(let ((.def_92 (and .s.3 .def_91)))
(let ((.def_93 (not .def_92)))
(let ((.def_101 (or .def_93 .def_100)))
(let ((.def_232 (and .def_101 .def_231)))
(let ((.def_81 (and .s.3 .def_80)))
(let ((.def_82 (not .def_81)))
(let ((.def_90 (or .def_82 .def_89)))
(let ((.def_233 (and .def_90 .def_232)))
(let ((.def_73 (and .s.3.next .def_72)))
(let ((.def_68 (* (- 1) main.k.next)))
(let ((.def_69 (+ main.k .def_68)))
(let ((.def_70 (= .def_69 (- 1))))
(let ((.def_74 (and .def_70 .def_73)))
(let ((.def_75 (and .def_35 .def_74)))
(let ((.def_76 (and .def_29 .def_75)))
(let ((.def_77 (and .def_26 .def_76)))
(let ((.def_64 (and .s.3 .def_63)))
(let ((.def_65 (not .def_64)))
(let ((.def_78 (or .def_65 .def_77)))
(let ((.def_234 (and .def_78 .def_233)))
(let ((.def_57 (and .def_35 .def_56)))
(let ((.def_58 (and .def_32 .def_57)))
(let ((.def_59 (and .def_29 .def_58)))
(let ((.def_60 (and .def_26 .def_59)))
(let ((.def_53 (and .s.3 .def_52)))
(let ((.def_54 (not .def_53)))
(let ((.def_61 (or .def_54 .def_60)))
(let ((.def_235 (and .def_61 .def_234)))
(let ((.def_22 (and .s.3 .def_21)))
(let ((.def_23 (not .def_22)))
(let ((.def_51 (or .def_23 .def_50)))
(let ((.def_236 (and .def_51 .def_235)))
.def_236)))))))))))))))))))))))))))))))))))))))))))))))))))))))))))))))))))))))))))))))))))))))))))))))))))))))))))))))))))))))))))))))))))))))))))))))))))))))))))))))))))))))))))))))))))))))))))))))))))))))))))))))))) (state |.s.1.next| |.s.0.next| |.s.2.next| |.s.3.next| |main.n.next| |main.l.next| |main.k.next| |main.i.next|))))
(assert (forall ((|.s.0| Bool) (|.s.1| Bool) (|.s.0.next| Bool) (|.s.1.next| Bool) (|.s.2.next| Bool) (|.s.3.next| Bool) (|main.i.next| Int) (|main.i| Int) (|main.k.next| Int) (|main.k| Int) (|main.l.next| Int) (|main.l| Int) (|main.n.next| Int) (|main.n| Int) (|.s.3| Bool) (|.s.2| Bool)) (=> (state |.s.1| |.s.0| |.s.2| |.s.3| |main.n| |main.l| |main.k| |main.i|) (let ((.def_79 (and .s.1 .s.0)))
(let ((.def_14 (not .s.2)))
(let ((.def_80 (and .def_14 .def_79)))
(let ((.def_81 (and .s.3 .def_80)))
(let ((.def_82 (not .def_81)))
.def_82))))))))
(check-sat)
